14,3	0,0	13,0	17,1	0,0	0,0	0,0	0,0	0,0	12,3
5,6	17,7	0,0	8,5	19,7	0,0	0,0	17,6	0,0	0,0
0,0	0,0	16,2	0,0	15,9	18,2	0,0	0,0	5,1	0,0
5,1	0,0	11,2	0,0	0,0	0,0	8,9	0,0	0,0	0,0
0,0	13,5	0,0	18,4	8,1	0,0	0,0	19,8	0,0	0,0
0,0	8,6	8,9	0,0	12,5	8,9	0,0	0,0	19,9	0,0
0,0	13,2	0,0	14,9	0,0	0,0	18,2	0,0	0,0	13,0
13,5	0,0	16,1	0,0	0,0	0,0	0,0	0,0	0,0	15,4
0,0	10,7	0,0	18,1	18,7	0,0	0,0	6,2	0,0	0,0
0,0	0,0	5,7	0,0	0,0	5,9	5,1	0,0	0,0	20,0
									
3,6	3,3	3,7	4,3	3,4	3,7	3,5	2,7	4,1	2,8
